Gurobi Optimizer version 9.1.2 build v9.1.2rc0 (linux64)
Thread count: 36 physical cores, 72 logical processors, using up to 32 threads
Optimize a model with 12 rows, 57 columns and 590 nonzeros
Model fingerprint: 0xf32eec78
Model has 47 quadratic constraints
Coefficient statistics:
  Matrix range     [2e-05, 3e+00]
  QMatrix range    [1e+00, 1e+00]
  QLMatrix range   [1e+00, 1e+00]
  Objective range  [8e-03, 7e-01]
  Bounds range     [1e+00, 1e+00]
  RHS range        [1e+00, 1e+00]
Presolve removed 9 rows and 0 columns

Continuous model is non-convex -- solving as a MIP.

Presolve removed 9 rows and 0 columns
Presolve time: 0.00s
Presolved: 189 rows, 57 columns, 443 nonzeros
Presolved model has 47 bilinear constraint(s)
Variable types: 57 continuous, 0 integer (0 binary)

Root relaxation: objective -1.743721e+00, 44 iterations, 0.00 seconds

    Nodes    |    Current Node    |     Objective Bounds      |     Work
 Expl Unexpl |  Obj  Depth IntInf | Incumbent    BestBd   Gap | It/Node Time

     0     0   -1.74372    0   38          -   -1.74372      -     -    0s
H    0     0                       0.6147548   -1.74372   384%     -    0s
     0     0   -1.64739    0    1    0.61475   -1.64739   368%     -    0s
H    0     0                      -1.6450460   -1.64739  0.14%     -    0s
     0     0     cutoff    0        -1.64505   -1.64505  0.00%     -    0s

Cutting planes:
  RLT: 25
  BQP: 3

Explored 1 nodes (76 simplex iterations) in 0.01 seconds
Thread count was 32 (of 72 available processors)

Solution count 2: -1.64505 0.614755 
No other solutions better than -1.64505

Optimal solution found (tolerance 1.00e-04)
Best objective -1.645045978473e+00, best bound -1.645045978473e+00, gap 0.0000%

User-callback calls 78, time in user-callback 0.00 sec
Gurobi Optimizer version 9.1.2 build v9.1.2rc0 (linux64)
Thread count: 36 physical cores, 72 logical processors, using up to 32 threads
Optimize a model with 24 rows, 120 columns and 2480 nonzeros
Model fingerprint: 0x33696816
Model has 100 quadratic constraints
Coefficient statistics:
  Matrix range     [8e-06, 4e+00]
  QMatrix range    [1e+00, 1e+00]
  QLMatrix range   [1e+00, 1e+00]
  Objective range  [4e-03, 1e+00]
  Bounds range     [1e+00, 1e+00]
  RHS range        [1e+00, 1e+00]
Presolve removed 17 rows and 0 columns

Continuous model is non-convex -- solving as a MIP.

Presolve removed 17 rows and 0 columns
Presolve time: 0.00s
Presolved: 407 rows, 120 columns, 1232 nonzeros
Presolved model has 100 bilinear constraint(s)
Variable types: 120 continuous, 0 integer (0 binary)

Root relaxation: objective -6.669952e+00, 117 iterations, 0.00 seconds

    Nodes    |    Current Node    |     Objective Bounds      |     Work
 Expl Unexpl |  Obj  Depth IntInf | Incumbent    BestBd   Gap | It/Node Time

     0     0   -6.66995    0  100          -   -6.66995      -     -    0s
H    0     0                       1.6832623   -6.66995   496%     -    0s
     0     0   -4.43104    0   90    1.68326   -4.43104   363%     -    0s
H    0     0                       0.4985597   -4.43104   989%     -    0s
     0     0   -3.91049    0  100    0.49856   -3.91049   884%     -    0s
H    0     0                       0.1157237   -3.91049  3479%     -    0s
     0     0   -3.89556    0   90    0.11572   -3.89556  3466%     -    0s
     0     0   -3.77769    0   90    0.11572   -3.77769  3364%     -    0s
H    0     0                      -0.2367361   -3.77769  1496%     -    0s
     0     0   -3.77108    0   90   -0.23674   -3.77108  1493%     -    0s
     0     0   -3.73189    0   90   -0.23674   -3.73189  1476%     -    0s
     0     0   -3.73148    0   90   -0.23674   -3.73148  1476%     -    0s
     0     0   -3.72492    0   90   -0.23674   -3.72492  1473%     -    0s
     0     0   -3.72425    0   90   -0.23674   -3.72425  1473%     -    0s
     0     0   -3.72063    0   90   -0.23674   -3.72063  1472%     -    0s
H    0     0                      -1.1989656   -3.72063   210%     -    0s
H    0     0                      -1.5784068   -3.72063   136%     -    0s
H    0     0                      -1.6819506   -3.72063   121%     -    0s
     0     2   -3.72063    0   90   -1.68195   -3.72063   121%     -    0s
*  879   976              21      -3.0784903   -3.26434  6.04%  28.4    0s

Cutting planes:
  RLT: 74
  BQP: 20
  PSD: 25

Explored 1535 nodes (29042 simplex iterations) in 0.58 seconds
Thread count was 32 (of 72 available processors)

Solution count 8: -3.07849 -1.68195 -1.57841 ... 1.68326
No other solutions better than -3.07849

Optimal solution found (tolerance 1.00e-04)
Best objective -3.078490264978e+00, best bound -3.078490264978e+00, gap 0.0000%

User-callback calls 3313, time in user-callback 0.00 sec



objective value: -3.07849026497791
objective bound: -3.07849026497791
x_opt: [0.0, 0.9999999999999999, 1.0, 0.4512624031775143, 1.0, 8.905280890958087e-18, 0.07440911739482668, 1.4690727678941772e-18, 0.17893850255691704, 1.0, 0.0, 0.0026198179707324835, 1.0, 1.0, 1.0, 0.0, 0.0, 0.0, 0.0, 0.0]
GUROBI solution time: 0.5819189548492432




